p cnf 120 420
-6 -4 0
-6 -5 0
4 5 6 0
-7 -3 0
-7 6 0
3 -6 7 0
-8 2 0
-8 -7 0
-2 7 8 0
1 -8 -9 0
-1 8 -9 0
1 8 9 0
-1 -8 9 0
-11 4 0
-11 10 0
-4 -10 11 0
-12 9 0
-12 11 0
-9 -11 12 0
15 -13 0
15 -14 0
13 14 -15 0
17 16 0
17 -13 0
-16 13 -17 0
16 -17 -18 0
-16 17 -18 0
16 17 18 0
-16 -17 18 0
20 18 0
20 -19 0
-18 19 -20 0
-15 -20 -21 0
15 20 -21 0
-15 20 21 0
15 -20 21 0
22 -12 0
22 -21 0
12 21 -22 0
-23 5 0
-23 7 0
-5 -7 23 0
-2 -23 -24 0
2 23 -24 0
-2 23 24 0
2 -23 24 0
-22 24 -25 0
22 -24 -25 0
-22 -24 25 0
22 24 25 0
-26 14 0
-26 16 0
-14 -16 26 0
6 -26 -27 0
-6 26 -27 0
6 26 27 0
-6 -26 27 0
29 -8 0
29 -16 0
8 16 -29 0
-29 -26 -30 0
29 26 -30 0
-29 26 30 0
29 -26 30 0
31 -28 0
31 30 0
28 -30 -31 0
32 -27 0
32 -31 0
27 31 -32 0
28 33 0
-28 33 0
-34 33 0
-34 -7 0
-33 7 34 0
-35 -34 0
-35 -18 0
34 18 35 0
-35 -16 -36 0
35 16 -36 0
-35 16 36 0
35 -16 36 0
37 -32 0
37 -36 0
32 36 -37 0
-27 4 -38 0
27 -4 -38 0
-27 -4 38 0
27 4 38 0
39 33 0
39 -8 0
-33 8 -39 0
40 16 0
40 -39 0
-16 39 -40 0
-38 -40 -41 0
38 40 -41 0
-38 40 41 0
38 -40 41 0
42 41 0
42 35 0
-41 -35 -42 0
-43 -37 0
-43 -42 0
37 42 43 0
44 -25 0
44 43 0
25 -43 -44 0
-18 17 -45 0
18 -17 -45 0
-18 -17 45 0
18 17 45 0
28 -46 0
-28 -46 0
-47 45 0
-47 -46 0
-45 46 47 0
-7 -13 -48 0
7 13 -48 0
-7 13 48 0
7 -13 48 0
-49 48 0
-49 16 0
-48 -16 49 0
-50 -40 0
-50 49 0
40 -49 50 0
47 -50 -51 0
-47 50 -51 0
47 50 51 0
-47 -50 51 0
52 -14 0
52 -26 0
14 26 -52 0
11 29 -53 0
-11 -29 -53 0
11 -29 53 0
-11 29 53 0
-54 52 0
-54 53 0
-52 -53 54 0
55 51 0
55 54 0
-51 -54 -55 0
-56 44 0
-56 55 0
-44 -55 56 0
-57 6 0
-57 16 0
-6 -16 57 0
58 17 0
58 -57 0
-17 57 -58 0
-59 -38 0
-59 -58 0
38 58 59 0
-60 -23 0
-60 59 0
23 -59 60 0
38 -61 0
-38 -61 0
-62 -60 0
-62 61 0
60 -61 62 0
63 57 0
63 -18 0
-57 18 -63 0
64 -33 0
64 2 0
33 -2 -64 0
-63 64 -65 0
63 -64 -65 0
-63 -64 65 0
63 64 65 0
-4 6 -66 0
4 -6 -66 0
-4 -6 66 0
4 6 66 0
67 65 0
67 66 0
-65 -66 -67 0
-68 14 0
-68 -18 0
-14 18 68 0
69 39 0
69 -68 0
-39 68 -69 0
-70 -67 0
-70 69 0
67 -69 70 0
-62 70 -71 0
62 -70 -71 0
-62 -70 71 0
62 70 71 0
-72 40 0
-72 -7 0
-40 7 72 0
-71 -72 -73 0
71 72 -73 0
-71 72 73 0
71 -72 73 0
-74 18 0
-74 -16 0
-18 16 74 0
23 74 -75 0
-23 -74 -75 0
23 -74 75 0
-23 74 75 0
8 19 -76 0
-8 -19 -76 0
8 -19 76 0
-8 19 76 0
77 76 0
77 -74 0
-76 74 -77 0
-78 75 0
-78 -77 0
-75 77 78 0
-79 -39 0
-79 2 0
39 -2 79 0
80 78 0
80 79 0
-78 -79 -80 0
-81 73 0
-81 -80 0
-73 80 81 0
-83 -28 0
-83 82 0
28 -82 83 0
84 81 0
84 -83 0
-81 83 -84 0
85 -57 0
85 48 0
57 -48 -85 0
9 4 -86 0
-9 -4 -86 0
9 -4 86 0
-9 4 86 0
85 86 -87 0
-85 -86 -87 0
85 -86 87 0
-85 86 87 0
89 -58 0
89 -64 0
58 64 -89 0
89 59 -90 0
-89 -59 -90 0
89 -59 90 0
-89 59 90 0
91 -88 0
91 90 0
88 -90 -91 0
-92 -87 0
-92 -91 0
87 91 92 0
-93 -84 0
-93 92 0
84 -92 93 0
94 33 0
94 -30 0
-33 30 -94 0
95 -94 0
95 -63 0
94 63 -95 0
76 40 -96 0
-76 -40 -96 0
76 -40 96 0
-76 40 96 0
97 -95 0
97 96 0
95 -96 -97 0
-49 -17 -98 0
49 17 -98 0
-49 17 98 0
49 -17 98 0
-97 -98 -99 0
97 98 -99 0
-97 98 99 0
97 -98 99 0
-93 -99 -100 0
93 99 -100 0
-93 99 100 0
93 -99 100 0
101 56 0
101 -100 0
-56 100 -101 0
-102 26 0
-102 18 0
-26 -18 102 0
103 -32 0
103 -36 0
32 36 -103 0
-63 35 -104 0
63 -35 -104 0
-63 -35 104 0
63 35 104 0
-103 104 -105 0
103 -104 -105 0
-103 -104 105 0
103 104 105 0
-102 -105 -106 0
102 105 -106 0
-102 105 106 0
102 -105 106 0
-108 -107 0
-108 -64 0
107 64 108 0
109 108 0
109 33 0
-108 -33 -109 0
110 -106 0
110 -109 0
106 109 -110 0
-48 26 -111 0
48 -26 -111 0
-48 -26 111 0
48 26 111 0
-112 40 0
-112 -10 0
-40 10 112 0
41 112 -113 0
-41 -112 -113 0
41 -112 113 0
-41 112 113 0
-111 -113 -114 0
111 113 -114 0
-111 113 114 0
111 -113 114 0
115 -110 0
115 -114 0
110 114 -115 0
-116 -19 0
-116 103 0
19 -103 116 0
117 18 0
117 -74 0
-18 74 -117 0
-118 116 0
-118 117 0
-116 -117 118 0
115 -118 -119 0
-115 118 -119 0
115 118 119 0
-115 -118 119 0
120 101 0
120 -119 0
-101 119 -120 0
-51 92 0
71 88 67 -20 65 17 0
-19 -59 0
49 -95 27 48 0
31 116 -78 0
-102 78 -66 -61 79 0
105 -58 -48 80 0
-104 -38 0
-77 95 80 25 -48 8 0
7 107 -108 74 0
-25 -45 74 36 -52 0
-97 12 20 0
52 -95 -40 -61 12 -51 0
-94 103 -104 91 118 0
-89 -70 -69 12 0
42 -104 0
-22 -11 0
29 92 78 71 42 0
-100 -114 30 0
-46 79 13 56 0
-89 -73 -32 -22 -80 0
66 -110 50 3 0
92 42 -30 -104 -86 0
119 71 -75 31 35 0
98 -108 -38 53 0
-48 23 -117 -91 12 -35 0
-49 23 19 -98 -116 0
-36 -16 -72 -3 -8 -47 0
44 -30 19 0
23 106 -105 80 72 0
-44 31 94 -43 117 115 0
15 -32 0
70 -120 1 -118 -73 0
119 -113 35 -3 0
20 -6 0
-7 64 -108 59 37 0
27 -115 66 -22 0
82 -72 119 38 -39 0
-104 -91 -68 0
10 -73 38 -54 -4 -15 0
-20 38 -67 -119 -91 -39 0
-107 -83 -28 -32 0
64 70 -52 67 0
82 -50 -94 0
-95 -37 -105 0
68 45 -17 21 -76 39 0
-16 -8 27 73 0
15 118 -27 69 0
-13 -35 -53 92 67 0
-45 63 50 57 -107 0
-78 86 -8 20 54 0
-108 103 85 0
-87 53 118 0
-41 27 -68 -74 -35 0
-90 -37 117 114 0
90 -88 -22 -44 -38 -115 0
-62 -27 0
46 -5 0
33 -5 0
70 -29 38 -52 -56 0
-51 -20 35 -61 0
-38 88 0
93 -108 0
84 -55 0
119 -55 0
37 119 4 0
71 -81 36 11 -22 0
-115 -96 -46 79 92 0
-118 45 -16 -38 47 0
6 -16 -91 -4 0
120 0
